(set-info :source |printed by MathSAT|)
(declare-fun call_synapse.ite13 () Int)
(declare-fun call_synapse.invalid_s.next () Int)
(declare-fun call_synapse.flby3.next () Int)
(declare-fun call_synapse.garde_s1.next () Bool)
(declare-fun call_First.First () Int)
(declare-fun call_synapse.ite10.next () Int)
(declare-fun call_synapse.mem_init_s.next () Int)
(declare-fun valid_s () Int)
(declare-fun param_e_s3.next () Bool)
(declare-fun call_First.flby () Int)
(declare-fun param_e_s1.next () Bool)
(declare-fun _OK_.next () Bool)
(declare-fun env.next () Bool)
(declare-fun call_synapse.ite12.next () Int)
(declare-fun call_synapse.ite5.next () Int)
(declare-fun call_synapse.ite7.next () Int)
(declare-fun call_synapse.ite6.next () Int)
(declare-fun dirty_s.next () Int)
(declare-fun mem_init_s () Int)
(declare-fun call_synapse.ite18.next () Int)
(declare-fun call_synapse.ite13.next () Int)
(declare-fun call_synapse.ite6 () Int)
(declare-fun call_synapse.ite4.next () Int)
(declare-fun call_synapse.ite10 () Int)
(declare-fun call_synapse.ite16 () Int)
(declare-fun _OK_ () Bool)
(declare-fun call_synapse.ite18 () Int)
(declare-fun param_e_s3 () Bool)
(declare-fun call_synapse.flby2.next () Int)
(declare-fun call_synapse.garde_s2.next () Bool)
(declare-fun call_synapse.ite8 () Int)
(declare-fun call_synapse.ite2 () Int)
(declare-fun call_synapse.ite11 () Int)
(declare-fun call_synapse.ite16.next () Int)
(declare-fun call_Sofar.Sofar.next () Bool)
(declare-fun call_synapse.ite12 () Int)
(declare-fun call_synapse.ite14 () Int)
(declare-fun valid_s.next () Int)
(declare-fun call_synapse.ite4 () Int)
(declare-fun call_excludes3.excludes.next () Bool)
(declare-fun call_synapse.ite11.next () Int)
(declare-fun call_synapse.ite9.next () Int)
(declare-fun call_First.First.next () Int)
(declare-fun invalid_s.next () Int)
(declare-fun call_synapse.dirty_s.next () Int)
(declare-fun call_synapse.ite2.next () Int)
(declare-fun env () Bool)
(declare-fun call_First.flby.next () Int)
(declare-fun call_Sofar.Sofar () Bool)
(declare-fun call_synapse.dirty_s () Int)
(declare-fun call_synapse.ite17.next () Int)
(declare-fun call_synapse.ite17 () Int)
(declare-fun call_synapse.flby4.next () Int)
(declare-fun call_synapse.ite () Int)
(declare-fun call_synapse.ite3.next () Int)
(declare-fun call_synapse.ite15.next () Int)
(declare-fun dirty_s () Int)
(declare-fun param_e_s2 () Bool)
(declare-fun call_synapse.flby4 () Int)
(declare-fun call_synapse.ite8.next () Int)
(declare-fun call_synapse.flby3 () Int)
(declare-fun call_synapse.ite7 () Int)
(declare-fun call_synapse.flby () Int)
(declare-fun mem_init_s.next () Int)
(declare-fun invalid_s () Int)
(declare-fun call_synapse.mem_init_s () Int)
(declare-fun call_synapse.ite5 () Int)
(declare-fun call_synapse.valid_s.next () Int)
(declare-fun call_Sofar.flby () Bool)
(declare-fun param_e_s2.next () Bool)
(declare-fun call_synapse.invalid_s () Int)
(declare-fun call_synapse.valid_s () Int)
(declare-fun call_excludes3.excludes () Bool)
(declare-fun call_synapse.flby.next () Int)
(declare-fun param_init_invalid_s.next () Int)
(declare-fun call_synapse.ite.next () Int)
(declare-fun call_synapse.flby2 () Int)
(declare-fun call_Sofar.flby.next () Bool)
(declare-fun call_synapse.garde_s3.next () Bool)
(declare-fun call_synapse.ite14.next () Int)
(declare-fun param_e_s1 () Bool)
(define-fun .def_798 () Bool (= call_First.flby.next call_First.First.next))
(define-fun .def_796 () Bool (= call_Sofar.flby.next call_Sofar.Sofar.next))
(define-fun .def_791 () Bool (and param_e_s3.next param_e_s2.next))
(define-fun .def_789 () Bool (and param_e_s3.next param_e_s1.next))
(define-fun .def_788 () Bool (and param_e_s1.next param_e_s2.next))
(define-fun .def_790 () Bool (or .def_788 .def_789))
(define-fun .def_792 () Bool (or .def_790 .def_791))
(define-fun .def_793 () Bool (not .def_792))
(define-fun .def_794 () Bool (= call_excludes3.excludes.next .def_793))
(define-fun .def_786 () Bool (= call_synapse.flby.next call_synapse.mem_init_s.next))
(define-fun .def_784 () Bool (= call_synapse.flby4.next call_synapse.dirty_s.next))
(define-fun .def_782 () Bool (= call_synapse.flby3.next call_synapse.valid_s.next))
(define-fun .def_780 () Bool (= call_synapse.flby2.next call_synapse.invalid_s.next))
(define-fun .def_776 () Bool (= call_synapse.ite16.next call_synapse.ite17.next))
(define-fun .def_777 () Bool (or param_e_s2.next .def_776))
(define-fun .def_773 () Bool (= call_synapse.ite14.next call_synapse.ite17.next))
(define-fun .def_764 () Bool (not param_e_s2.next))
(define-fun .def_774 () Bool (or .def_764 .def_773))
(define-fun .def_770 () Bool (= call_synapse.ite10.next call_synapse.ite11.next))
(define-fun .def_771 () Bool (or param_e_s2.next .def_770))
(define-fun .def_767 () Bool (= call_synapse.ite8.next call_synapse.ite11.next))
(define-fun .def_768 () Bool (or .def_764 .def_767))
(define-fun .def_763 () Bool (= call_synapse.ite2.next call_synapse.ite5.next))
(define-fun .def_765 () Bool (or .def_763 .def_764))
(define-fun .def_760 () Bool (= call_synapse.ite4.next call_synapse.ite5.next))
(define-fun .def_762 () Bool (or .def_760 param_e_s2.next))
(define-fun .def_766 () Bool (and .def_762 .def_765))
(define-fun .def_769 () Bool (and .def_766 .def_768))
(define-fun .def_772 () Bool (and .def_769 .def_771))
(define-fun .def_775 () Bool (and .def_772 .def_774))
(define-fun .def_778 () Bool (and .def_775 .def_777))
(define-fun .def_756 () Bool (= call_synapse.ite18.next call_synapse.ite17.next))
(define-fun .def_757 () Bool (or param_e_s1.next .def_756))
(define-fun .def_752 () Bool (= call_synapse.ite13.next call_synapse.ite18.next))
(define-fun .def_742 () Bool (not param_e_s1.next))
(define-fun .def_753 () Bool (or .def_742 .def_752))
(define-fun .def_749 () Bool (= call_synapse.ite12.next call_synapse.ite11.next))
(define-fun .def_750 () Bool (or param_e_s1.next .def_749))
(define-fun .def_745 () Bool (= call_synapse.ite7.next call_synapse.ite12.next))
(define-fun .def_746 () Bool (or .def_742 .def_745))
(define-fun .def_741 () Bool (= call_synapse.ite.next call_synapse.ite6.next))
(define-fun .def_743 () Bool (or .def_741 .def_742))
(define-fun .def_738 () Bool (= call_synapse.ite6.next call_synapse.ite5.next))
(define-fun .def_740 () Bool (or .def_738 param_e_s1.next))
(define-fun .def_744 () Bool (and .def_740 .def_743))
(define-fun .def_747 () Bool (and .def_744 .def_746))
(define-fun .def_751 () Bool (and .def_747 .def_750))
(define-fun .def_754 () Bool (and .def_751 .def_753))
(define-fun .def_758 () Bool (and .def_754 .def_757))
(define-fun .def_735 () Bool (= env.next call_Sofar.Sofar.next))
(define-fun .def_732 () Bool (= mem_init_s.next call_synapse.mem_init_s.next))
(define-fun .def_728 () Bool (= dirty_s.next call_synapse.dirty_s.next))
(define-fun .def_724 () Bool (= valid_s.next call_synapse.valid_s.next))
(define-fun .def_721 () Bool (= invalid_s.next call_synapse.invalid_s.next))
(define-fun .def_716 () Bool (<= valid_s.next call_First.First.next))
(define-fun .def_713 () Bool (not env.next))
(define-fun .def_717 () Bool (or .def_713 .def_716))
(define-fun .def_718 () Bool (= _OK_.next .def_717))
(define-fun .def_722 () Bool (and .def_718 .def_721))
(define-fun .def_725 () Bool (and .def_722 .def_724))
(define-fun .def_729 () Bool (and .def_725 .def_728))
(define-fun .def_733 () Bool (and .def_729 .def_732))
(define-fun .def_736 () Bool (and .def_733 .def_735))
(define-fun .def_759 () Bool (and .def_736 .def_758))
(define-fun .def_779 () Bool (and .def_759 .def_778))
(define-fun .def_781 () Bool (and .def_779 .def_780))
(define-fun .def_783 () Bool (and .def_781 .def_782))
(define-fun .def_785 () Bool (and .def_783 .def_784))
(define-fun .def_787 () Bool (and .def_785 .def_786))
(define-fun .def_795 () Bool (and .def_787 .def_794))
(define-fun .def_797 () Bool (and .def_795 .def_796))
(define-fun .def_799 () Bool (and .def_797 .def_798))
(define-fun .def_562 () Bool (= call_First.flby call_First.First))
(define-fun .def_560 () Bool (= call_Sofar.flby call_Sofar.Sofar))
(define-fun .def_555 () Bool (and param_e_s3 param_e_s2))
(define-fun .def_553 () Bool (and param_e_s3 param_e_s1))
(define-fun .def_552 () Bool (and param_e_s1 param_e_s2))
(define-fun .def_554 () Bool (or .def_552 .def_553))
(define-fun .def_556 () Bool (or .def_554 .def_555))
(define-fun .def_557 () Bool (not .def_556))
(define-fun .def_558 () Bool (= call_excludes3.excludes .def_557))
(define-fun .def_550 () Bool (= call_synapse.flby call_synapse.mem_init_s))
(define-fun .def_548 () Bool (= call_synapse.flby4 call_synapse.dirty_s))
(define-fun .def_546 () Bool (= call_synapse.flby3 call_synapse.valid_s))
(define-fun .def_544 () Bool (= call_synapse.flby2 call_synapse.invalid_s))
(define-fun .def_540 () Bool (= call_synapse.ite16 call_synapse.ite17))
(define-fun .def_541 () Bool (or param_e_s2 .def_540))
(define-fun .def_537 () Bool (= call_synapse.ite14 call_synapse.ite17))
(define-fun .def_528 () Bool (not param_e_s2))
(define-fun .def_538 () Bool (or .def_528 .def_537))
(define-fun .def_534 () Bool (= call_synapse.ite10 call_synapse.ite11))
(define-fun .def_535 () Bool (or param_e_s2 .def_534))
(define-fun .def_531 () Bool (= call_synapse.ite8 call_synapse.ite11))
(define-fun .def_532 () Bool (or .def_528 .def_531))
(define-fun .def_527 () Bool (= call_synapse.ite5 call_synapse.ite2))
(define-fun .def_529 () Bool (or .def_527 .def_528))
(define-fun .def_523 () Bool (= call_synapse.ite4 call_synapse.ite5))
(define-fun .def_525 () Bool (or .def_523 param_e_s2))
(define-fun .def_530 () Bool (and .def_525 .def_529))
(define-fun .def_533 () Bool (and .def_530 .def_532))
(define-fun .def_536 () Bool (and .def_533 .def_535))
(define-fun .def_539 () Bool (and .def_536 .def_538))
(define-fun .def_542 () Bool (and .def_539 .def_541))
(define-fun .def_519 () Bool (= call_synapse.ite18 call_synapse.ite17))
(define-fun .def_520 () Bool (or param_e_s1 .def_519))
(define-fun .def_515 () Bool (= call_synapse.ite13 call_synapse.ite18))
(define-fun .def_502 () Bool (not param_e_s1))
(define-fun .def_516 () Bool (or .def_502 .def_515))
(define-fun .def_511 () Bool (= call_synapse.ite12 call_synapse.ite11))
(define-fun .def_512 () Bool (or param_e_s1 .def_511))
(define-fun .def_507 () Bool (= call_synapse.ite7 call_synapse.ite12))
(define-fun .def_508 () Bool (or .def_502 .def_507))
(define-fun .def_501 () Bool (= call_synapse.ite6 call_synapse.ite))
(define-fun .def_503 () Bool (or .def_501 .def_502))
(define-fun .def_497 () Bool (= call_synapse.ite6 call_synapse.ite5))
(define-fun .def_499 () Bool (or .def_497 param_e_s1))
(define-fun .def_504 () Bool (and .def_499 .def_503))
(define-fun .def_509 () Bool (and .def_504 .def_508))
(define-fun .def_513 () Bool (and .def_509 .def_512))
(define-fun .def_517 () Bool (and .def_513 .def_516))
(define-fun .def_521 () Bool (and .def_517 .def_520))
(define-fun .def_493 () Bool (= env call_Sofar.Sofar))
(define-fun .def_490 () Bool (= call_synapse.mem_init_s mem_init_s))
(define-fun .def_487 () Bool (= dirty_s call_synapse.dirty_s))
(define-fun .def_483 () Bool (= valid_s call_synapse.valid_s))
(define-fun .def_480 () Bool (= invalid_s call_synapse.invalid_s))
(define-fun .def_475 () Bool (<= valid_s call_First.First))
(define-fun .def_472 () Bool (not env))
(define-fun .def_476 () Bool (or .def_472 .def_475))
(define-fun .def_477 () Bool (= _OK_ .def_476))
(define-fun .def_481 () Bool (and .def_477 .def_480))
(define-fun .def_484 () Bool (and .def_481 .def_483))
(define-fun .def_488 () Bool (and .def_484 .def_487))
(define-fun .def_491 () Bool (and .def_488 .def_490))
(define-fun .def_494 () Bool (and .def_491 .def_493))
(define-fun .def_522 () Bool (and .def_494 .def_521))
(define-fun .def_543 () Bool (and .def_522 .def_542))
(define-fun .def_545 () Bool (and .def_543 .def_544))
(define-fun .def_547 () Bool (and .def_545 .def_546))
(define-fun .def_549 () Bool (and .def_547 .def_548))
(define-fun .def_551 () Bool (and .def_549 .def_550))
(define-fun .def_559 () Bool (and .def_551 .def_558))
(define-fun .def_561 () Bool (and .def_559 .def_560))
(define-fun .def_563 () Bool (and .def_561 .def_562))
(define-fun .def_800 () Bool (and .def_563 .def_799))
(define-fun .def_709 () Bool (= call_First.First call_First.flby.next))
(define-fun .def_701 () Bool (<= 0 param_init_invalid_s.next))
(define-fun .def_703 () Bool (and .def_701 call_excludes3.excludes.next))
(define-fun .def_704 () Bool (and call_Sofar.Sofar .def_703))
(define-fun .def_706 () Bool (= .def_704 call_Sofar.flby.next))
(define-fun .def_698 () Bool (= call_synapse.ite18.next call_synapse.flby4.next))
(define-fun .def_694 () Bool (= call_synapse.ite12.next call_synapse.flby3.next))
(define-fun .def_690 () Bool (= call_synapse.ite6.next call_synapse.flby2.next))
(define-fun .def_686 () Bool (= call_synapse.mem_init_s call_synapse.flby.next))
(define-fun .def_664 () Bool (<= 1 call_synapse.invalid_s))
(define-fun .def_682 () Bool (= call_synapse.garde_s3.next .def_664))
(define-fun .def_679 () Bool (= call_synapse.ite9.next 0))
(define-fun .def_604 () Bool (not call_synapse.garde_s3.next))
(define-fun .def_680 () Bool (or .def_604 .def_679))
(define-fun .def_677 () Bool (= call_synapse.ite15.next 1))
(define-fun .def_678 () Bool (or .def_604 .def_677))
(define-fun .def_681 () Bool (and .def_678 .def_680))
(define-fun .def_683 () Bool (and .def_681 .def_682))
(define-fun .def_673 () Bool (<= 1 call_synapse.valid_s))
(define-fun .def_674 () Bool (= call_synapse.garde_s2.next .def_673))
(define-fun .def_670 () Bool (= call_synapse.ite8.next 0))
(define-fun .def_588 () Bool (not call_synapse.garde_s2.next))
(define-fun .def_671 () Bool (or .def_588 .def_670))
(define-fun .def_668 () Bool (= call_synapse.ite14.next 1))
(define-fun .def_669 () Bool (or .def_588 .def_668))
(define-fun .def_672 () Bool (and .def_669 .def_671))
(define-fun .def_675 () Bool (and .def_672 .def_674))
(define-fun .def_665 () Bool (= call_synapse.garde_s1.next .def_664))
(define-fun .def_662 () Bool (= call_synapse.ite13.next 0))
(define-fun .def_575 () Bool (not call_synapse.garde_s1.next))
(define-fun .def_663 () Bool (or .def_575 .def_662))
(define-fun .def_666 () Bool (and .def_663 .def_665))
(define-fun .def_658 () Bool (= call_synapse.dirty_s call_synapse.ite15.next))
(define-fun .def_659 () Bool (or call_synapse.garde_s3.next .def_658))
(define-fun .def_655 () Bool (= call_synapse.dirty_s call_synapse.ite13.next))
(define-fun .def_656 () Bool (or call_synapse.garde_s1.next .def_655))
(define-fun .def_652 () Bool (= call_synapse.dirty_s call_synapse.ite14.next))
(define-fun .def_653 () Bool (or call_synapse.garde_s2.next .def_652))
(define-fun .def_657 () Bool (and .def_653 .def_656))
(define-fun .def_660 () Bool (and .def_657 .def_659))
(define-fun .def_647 () Bool (= call_synapse.valid_s call_synapse.ite9.next))
(define-fun .def_648 () Bool (or call_synapse.garde_s3.next .def_647))
(define-fun .def_644 () Bool (= call_synapse.valid_s call_synapse.ite8.next))
(define-fun .def_645 () Bool (or call_synapse.garde_s2.next .def_644))
(define-fun .def_638 () Int (* (- 1) call_synapse.ite7.next))
(define-fun .def_639 () Int (+ call_synapse.valid_s .def_638))
(define-fun .def_640 () Bool (= .def_639 (- 1)))
(define-fun .def_641 () Bool (or .def_575 .def_640))
(define-fun .def_636 () Bool (= call_synapse.valid_s call_synapse.ite7.next))
(define-fun .def_637 () Bool (or call_synapse.garde_s1.next .def_636))
(define-fun .def_642 () Bool (and .def_637 .def_641))
(define-fun .def_646 () Bool (and .def_642 .def_645))
(define-fun .def_649 () Bool (and .def_646 .def_648))
(define-fun .def_631 () Bool (= call_synapse.dirty_s call_synapse.ite16.next))
(define-fun .def_632 () Bool (or param_e_s3.next .def_631))
(define-fun .def_628 () Bool (= call_synapse.ite15.next call_synapse.ite16.next))
(define-fun .def_615 () Bool (not param_e_s3.next))
(define-fun .def_629 () Bool (or .def_615 .def_628))
(define-fun .def_623 () Bool (= call_synapse.valid_s call_synapse.ite10.next))
(define-fun .def_624 () Bool (or param_e_s3.next .def_623))
(define-fun .def_620 () Bool (= call_synapse.ite9.next call_synapse.ite10.next))
(define-fun .def_621 () Bool (or .def_615 .def_620))
(define-fun .def_614 () Bool (= call_synapse.ite3.next call_synapse.ite4.next))
(define-fun .def_616 () Bool (or .def_614 .def_615))
(define-fun .def_611 () Bool (= call_synapse.invalid_s call_synapse.ite4.next))
(define-fun .def_613 () Bool (or .def_611 param_e_s3.next))
(define-fun .def_617 () Bool (and .def_613 .def_616))
(define-fun .def_622 () Bool (and .def_617 .def_621))
(define-fun .def_625 () Bool (and .def_622 .def_624))
(define-fun .def_630 () Bool (and .def_625 .def_629))
(define-fun .def_633 () Bool (and .def_630 .def_632))
(define-fun .def_607 () Bool (= call_synapse.invalid_s call_synapse.ite3.next))
(define-fun .def_608 () Bool (or call_synapse.garde_s3.next .def_607))
(define-fun .def_595 () Int (* (- 1) call_synapse.ite3.next))
(define-fun .def_599 () Int (+ call_synapse.dirty_s .def_595))
(define-fun .def_600 () Int (+ call_synapse.valid_s .def_599))
(define-fun .def_601 () Int (+ call_synapse.invalid_s .def_600))
(define-fun .def_602 () Bool (= .def_601 1))
(define-fun .def_605 () Bool (or .def_602 .def_604))
(define-fun .def_591 () Bool (= call_synapse.invalid_s call_synapse.ite2.next))
(define-fun .def_592 () Bool (or call_synapse.garde_s2.next .def_591))
(define-fun .def_579 () Int (* (- 1) call_synapse.ite2.next))
(define-fun .def_583 () Int (+ call_synapse.dirty_s .def_579))
(define-fun .def_584 () Int (+ call_synapse.valid_s .def_583))
(define-fun .def_585 () Int (+ call_synapse.invalid_s .def_584))
(define-fun .def_586 () Bool (= .def_585 1))
(define-fun .def_589 () Bool (or .def_586 .def_588))
(define-fun .def_569 () Int (* (- 1) call_synapse.ite.next))
(define-fun .def_572 () Int (+ call_synapse.dirty_s .def_569))
(define-fun .def_573 () Int (+ call_synapse.invalid_s .def_572))
(define-fun .def_574 () Bool (= .def_573 1))
(define-fun .def_576 () Bool (or .def_574 .def_575))
(define-fun .def_566 () Bool (= call_synapse.invalid_s call_synapse.ite.next))
(define-fun .def_568 () Bool (or .def_566 call_synapse.garde_s1.next))
(define-fun .def_577 () Bool (and .def_568 .def_576))
(define-fun .def_590 () Bool (and .def_577 .def_589))
(define-fun .def_593 () Bool (and .def_590 .def_592))
(define-fun .def_606 () Bool (and .def_593 .def_605))
(define-fun .def_609 () Bool (and .def_606 .def_608))
(define-fun .def_634 () Bool (and .def_609 .def_633))
(define-fun .def_650 () Bool (and .def_634 .def_649))
(define-fun .def_661 () Bool (and .def_650 .def_660))
(define-fun .def_667 () Bool (and .def_661 .def_666))
(define-fun .def_676 () Bool (and .def_667 .def_675))
(define-fun .def_684 () Bool (and .def_676 .def_683))
(define-fun .def_687 () Bool (and .def_684 .def_686))
(define-fun .def_691 () Bool (and .def_687 .def_690))
(define-fun .def_695 () Bool (and .def_691 .def_694))
(define-fun .def_699 () Bool (and .def_695 .def_698))
(define-fun .def_707 () Bool (and .def_699 .def_706))
(define-fun .def_710 () Bool (and .def_707 .def_709))
(define-fun .def_801 () Bool (and .def_710 .def_800))
(assert .def_801)
